50
400 400
1 278 670
2 273 62
3 270 264
4 263 561
5 249 205
6 248 98
7 248 293
8 243 8
9 240 37
10 237 447
11 233 884
12 224 360
13 224 22
14 219 687
15 217 81
16 212 950
17 211 452
18 204 725
19 202 848
20 202 901
21 201 941
22 200 254
23 198 681
24 196 392
25 195 626
26 194 191
27 191 108
28 189 529
29 186 412
30 178 210
31 177 98
32 164 749
33 161 962
34 154 26
35 148 716
36 148 996
37 147 140
38 140 799
39 136 562
40 134 0
41 130 739
42 130 943
43 113 484
44 111 401
45 96 776
46 81 11
47 78 175
48 56 294
49 52 674
50 43 534
